61
120
84	10
83	3
82	5
81	6
80	9
79	7
78	7
77	5
76	6
75	7
74	6
73	4
72	8
71	2
70	8
69	4
68	9
67	4
66	7
65	7
64	3
63	5
62	5
61	8
60	8
59	8
58	1
57	6
56	11
55	7
54	10
53	3
52	5
51	4
50	11
49	11
48	11
47	9
46	9
45	7
44	10
43	3
42	7
41	2
40	12
39	9
38	6
37	11
36	6
35	6
34	4
33	5
32	2
31	5
30	3
29	11
28	6
27	7
26	5
25	5
24	9
